qe/outputs/qe/qe_queries_cbrdelay_obs_redo/T=5,eliminate=[I_0,I_1,I_2,I_3,I_4,L_1,L_2,L_3,L_4,C,B,lhs=S_4].smt2
; benchmark generated from python API
(set-info :status unknown)
(declare-fun S_0 () Real)
(declare-fun S_1 () Real)
(declare-fun S_3 () Real)
(declare-fun S_4 () Real)
(declare-fun A_4 () Real)
(declare-fun L_0 () Real)
(declare-fun A_0 () Real)
(declare-fun S_2 () Real)
(declare-fun A_1 () Real)
(declare-fun A_3 () Real)
(declare-fun A_2 () Real)
(assert
 (let (($x1657 (<= (+ (* (- 1.0) A_0) (* (- 1.0) S_3) L_0 (* 2.0 S_1)) 0.0)))
 (let (($x34 (>= L_0 0.0)))
 (let (($x452 (not (<= 0.0 (+ S_3 A_3 (* (- 1.0) A_1) (* (- 1.0) S_4))))))
 (let (($x9369 (or $x452 (<= (+ (* (- 1.0) S_4) (* 2.0 S_1) (* (- 1.0) S_0)) 0.0))))
 (let (($x9343 (or $x452 (<= (+ (* (- 2.0) S_4) (* 3.0 S_2) (* (- 1.0) S_1)) 0.0))))
 (let (($x7710 (<= (+ (* (- 1.0) A_0) L_0 (* (- 2.0) S_4) (* 3.0 S_2)) 0.0)))
 (let (($x11252 (or $x452 (<= (+ (* (- 3.0) S_4) (* 4.0 S_2) (* (- 1.0) S_0)) 0.0))))
 (let (($x6589 (<= (+ (* (- (/ 1.0 2.0)) S_3) L_0 (* (- 1.0) A_3) S_4 (* (/ 1.0 2.0) S_0)) 0.0)))
 (let (($x3216 (<= (+ (* (- 1.0) A_0) L_0 (* (- (/ 1.0 2.0)) S_4) (* (/ 3.0 2.0) S_1)) 0.0)))
 (let (($x114 (>= S_3 S_2)))
 (let (($x108 (>= S_1 S_0)))
 (let (($x111 (>= S_2 S_1)))
 (let (($x117 (>= S_4 S_3)))
 (let (($x120 (>= A_2 A_1)))
 (let (($x121 (>= A_3 A_2)))
 (let (($x122 (>= A_4 A_3)))
 (and (<= (+ A_0 (* (- 1.0) L_0)) S_3) $x122 $x121 $x120 $x117 $x111 $x108 $x114 (<= (+ L_0 (* (- 1.0) A_3) S_4 (* (- 1.0) S_2) S_0) 0.0) (or $x452 $x3216) (<= (+ (* (- 1.0) S_3) L_0 (* (- 1.0) A_3) S_4 S_1) 0.0) $x6589 (or $x452 (<= (+ (* (- (/ 1.0 3.0)) S_4) (* (/ 1.0 3.0) S_0)) (- 5.0))) $x11252 (or $x452 (<= (+ (* (- 1.0) S_4) S_2) (- 5.0))) (or $x452 $x7710) $x9343 (or $x452 (<= (+ (* (- (/ 1.0 2.0)) S_4) (* (/ 1.0 2.0) S_1)) (- 5.0))) $x9369 $x34 (not (>= (+ S_3 L_0 (* (- 1.0) A_1)) 0.0)) (<= (+ (* (- 1.0) A_0) L_0 S_0) 0.0) (<= (+ (* (- (/ 1.0 2.0)) S_3) (* (/ 1.0 2.0) S_0)) (- 5.0)) (<= (+ (* (- 1.0) S_3) S_1) (- 5.0)) (<= (+ (* (- 2.0) S_3) S_4 S_0) 0.0) (<= (+ (* (- 1.0) S_2) S_0) (- 5.0)) (<= (+ S_3 (* (- 3.0) S_2) (* 2.0 S_0)) 0.0) (<= (+ S_4 (* (- 4.0) S_2) (* 3.0 S_0)) 0.0) $x1657 (<= (+ (* (- 1.0) S_3) (* (/ 1.0 3.0) S_4) (* (/ 2.0 3.0) S_1)) 0.0) (<= (+ L_0 (* (- 1.0) A_4) S_4) 0.0) (<= (+ (* (- 2.0) S_3) (* 3.0 S_1) (* (- 1.0) S_0)) 0.0)))))))))))))))))))
(check-sat)
